lkh/tours/rm_santiago.tour
rm_santiago, Cost: 121_332
The tours traveled by the 3 salesmen are:
1 7 9 5 4 8 1 (#5)  Cost: 121
1 3 2 1 (#2)  Cost: 121
1 6 10 1 (#2)  Cost: 90
